c Random Network
p max    10      20
n         1  s
n        10  t
a       5       8      44
a       2       8      26
a       1       2       1
a      10       2       8
a       5       4      36
a       2       3      21
a       5       6      12
a       7       1      31
a       2      10      34
a      10       9      48
a       7       4      36
a       4       6      25
a       6      10      23
a       3       6      17
a       4       3      26
a       4       1       4
a       3       2       8
a       7       5      47
a       2       1      17
a       8       3      47
